8504
8504
8200
8200
8200
8200
8200
8200
8200
8200
8200
8200
8200
8200
8200
8200
8200
8200
7973
7973
7973
7973
7973
7973
7973
7973
7973
7973
8050
8050
8050
8050
8050
8123
8174
8174
8174
8174
8174
8174
8174
7945
7945
7945
7945
7945
7945
7945
7945
7945
7945
7945
7945
7945
7945
7945
7945
7945
7945
7945
7945
7945
7945
7945
7945
7945
7940
7940
7940
7940
7940
7940
7940
7940
7940
7940
7940
7940
7940
7940
7940
7940
7940
7940
7940
7940
7940
7940
7940
7940
7940
7940
7940
7940
7940
7940
7940
7940
7940
7940
7940
7940
7940
7940
7940
7940
7940
7940
7940
7940
7940
7940
7940
7940
7940
7940
7940
7940
7940
7940
7940
7940
7940
7940
7940
7940
7940
7940
7940
7940
7940
7940
7940
7940
7940
7940
7940
7940
7940
7940
7940
7940
7940
7940
7940
7940
7940
7940
7940
7940
7940
7940
7940
7940
7940
7940
7940
7940
7940
7940
7940
7940
7940
7940
7940
7940
7940
7940
7940
7940
7940
7940
7940
7940
7940
7940
7940
7940
7940
7940
7940
7940
7940
7940
7940
7940
7940
7940
7940
7940
7940
7940
7940
7940
7940
7940
7940
7940
7940
7940
7940
7940
7940
7940
7940
7940
7940
7940
7940
7940
7940
7940
7940
7940
7940
7940
7940
7940
7940
7940
7940
7940
7940
7940
7940
7940
7940
7940
7940
7940
7940
7940
7940
7940
7940
7940
7940
7940
7940
7940
7940
7940
7940
7940
7940
7940
7940
7940
7940
7940
7940
7940
7940
7940
7940
7940
7940
7940
7940
7940
7940
7940
7940
7940
7940
8853
8853
8853
8853
8606
8606
8606
8606
8633
8633
8633
7940
7940
7940
7940
7940
7940
7940
7940
7940
7940
7940
7940
7940
7940
7940
7940
7940
7940
7940
7940
7940
7940
7940
7940
7940
7940
7940
7940
7940
7940
7940
7940
7940
7940
7940
7940
7894
7894
7894
7894
7894
7894
7894
7894
7894
7894
7894
7894
7894
7894
7894
7894
7894
7894
7376
7376
7376
7376
7376
7376
7376
7376
7376
7376
7376
7376
7376
7376
7376
7376
7376
7376
7376
7376
7376
7376
7376
7376
7376
7376
7376
7376
7376
7376
7376
7376
7376
7376
7376
7376
7376
7376
7376
7376
7376
7376
7376
7376
7376
7376
7376
7376
7376
7376
7376
7376
7376
7376
7376
7376
7376
7376
7376
7376
7376
7376
7376
7376
7376
7376
7376
7376
7376
7376
7376
7376
7376
7376
7376
7376
7376
7376
7376
7376
7376
7376
7376
7376
7376
7376
7376
7376
7376
7376
7376
7376
7376
7376
7376
7376
7376
7376
7376
7376
7376
7376
7376
7376
7376
7376
7376
7376
7376
7376
7376
7376
7376
7376
7376
7376
7376
7376
7376
7376
7376
7376
7376
7376
7376
7376
7376
7376
7376
7376
7376
7376
7376
7376
7376
7376
7376
7376
7376
7376
7376
7376
7376
7376
7376
7376
7376
7376
7376
7376
7376
7376
7376
7376
7376
7376
7376
7376
7376
7376
7376
7376
7376
7376
7376
7376
7376
7376
7376
7376
7376
7376
7376
7376
7376
7376
7376
7376
7376
7376
7376
7376
7376
7376
7376
7376
7376
7376
7376
7376
7376
7376
7376
7376
7376
7376
7376
7376
7376
7376
7376
7376
7376
7376
7376
7376
7376
7376
7376
7376
7376
7376
7376
7376
7376
7376
7376
7376
7376
7376
7376
7376
7376
7376
7376
7376
7376
7376
7376
7376
7376
7376
7376
7376
7376
7376
7376
7376
7376
7376
7376
7376
7376
7376
7376
7376
7376
7376
7376
7376
7376
7376
7376
7376
7376
7376
7376
7376
7376
7376
7376
7376
7376
7376
7376
7376
7376
7376
7376
7376
7376
7376
7376
7376
7376
7376
7376
7376
7376
7376
7376
7376
7376
7376
7376
7376
7376
7376
7376
7376
7376
7376
7376
7376
7376
7376
7376
7376
7376
7376
7376
7376
7376
7376
7376
7376
7376
7376
7376
7376
7376
7376
7376
7376
7376
7376
7376
7376
7376
7376
7376
7376
7376
7376
7376
7376
7376
7376
7376
7376
7376
7376
7376
7376
7376
7376
7376
7376
7376
7376
7376
7376
7376
7376
7376
7376
7376
7376
7376
7376
7376
7376
7376
7376
7376
7376
7376
7376
7376
7376
7376
7376
7376
7376
7376
7376
7376
7376
7376
7376
7376
7376
7376
7376
7376
7376
7376
7376
7376
7376
7376
7376
7376
7376
7376
7376
7376
7376
7376
7376
7376
7376
7376
7376
7376
7376
7376
7376
7376
7376
7376
7376
7376
7376
7376
7376
7376
7376
7376
7376
7376
7376
7376
7376
7376
7376
7376
7376
7376
7376
7376
7376
7376
7376
7376
7376
7376
7376
7376
7376
7376
7376
7376
7376
7376
7376
7376
7376
7376
7376
7376
7376
7376
7376
7376
7376
7376
7376
7376
7376
7376
7376
7376
7376
7376
7376
7376
7376
7376
7376
7376
7376
7376
7376
7376
7376
7376
7376
7376
7376
7376
7376
7376
7376
7376
7376
7376
7376
7376
7376
7376
7376
7376
7376
7376
7376
7376
7376
7376
7376
7376
7376
7376
7376
7376
7376
7376
7376
7376
7376
7376
7376
7376
7376
7376
7376
7376
7376
7376
7376
7376
7376
7376
7376
7376
7376
7376
7376
7376
7376
7376
7376
7376
7376
7376
7376
7376
7376
7376
7376
7376
7376
7376
7376
7376
7376
7376
7376
7376
7376
7376
7376
7376
7376
7376
7376
7376
7376
7376
7376
7376
7376
7376
7376
7376
7376
7376
7376
7376
7376
7376
7376
7376
7376
7376
7376
7376
7376
7376
7376
7376
7376
7376
7376
7376
7376
7376
7376
7376
7376
7376
7376
7376
7376
7376
7376
7376
7376
7376
7376
7376
7376
7376
7376
7376
7376
7376
7376
7376
7376
7376
7376
7376
7376
7376
7376
7376
7376
7376
7376
7376
7376
7376
7376
7376
7376
7376
7376
7376
7376
7376
7376
7376
7376
7376
7376
7376
7376
7376
7376
7376
7376
7376
7376
7376
7376
7376
7376
7376
7376
7376
7376
7376
7376
7376
7376
7376
7376
7376
7376
7376
7376
7376
7376
7376
7376
7376
7376
7376
7376
7376
7376
7376
7376
7376
7376
7376
7376
7376
7376
7376
7376
7376
7376
7376
7376
7376
7376
7376
7376
7376
7376
7376
7376
7376
7376
7376
7376
10009
8831
7973
7973
7973
7973
7973
7973
7973
7973
7973
7973
7973
7973
7973
7973
7973
7973
7973
7973
7973
7973
7973
7973
7973
7973
7973
7973
7973
7973
7973
7973
7973
7973
7973
7973
7973
7973
7973
7973
7973
7940
7940
7940
7940
7940
7940
7940
7940
7940
7940
7940
7940
7940
7940
7940
7940
7940
7940
7940
7940
7940
7940
7940
7940
7940
7940
7940
7940
7940
7940
7940
7940
7940
7940
7940
7940
7940
7940
7940
7940
7940
7940
7940
7940
7940
7940
7940
7940
7940
7940
7940
7940
7940
7940
7940
7940
7940
7940
7940
7940
7940
7940
7940
7940
7940
7940
7940
7940
7940
7940
7940
7866
7866
7866
7866
7866
7866
7866
7866
7866
7866
7866
7866
7866
7866
7866
7866
7866
7866
7866
7866
7866
7866
7866
7866
7866
7866
7866
7866
7866
7866
7866
7866
7866
7866
7866
7866
7866
7866
7866
7866
7866
7866
7866
7866
7866
7866
7866
7866
7866
7866
7866
7866
7866
7866
7866
7866
7866
7866
7866
7866
7866
7866
7866
7866
7866
7866
7866
7866
7866
7866
7866
7866
7866
7866
7866
7866
7866
7866
7866
7866
7866
7866
7866
7866
7866
7866
7866
7866
7866
7866
7866
7866
7866
7866
7866
7866
7866
7866
7866
7866
7866
7866
7866
7866
7866
7866
7866
7866
7866
7866
7866
7866
7866
7866
7866
7866
7866
7866
7866
7866
7866
7866
7866
7866
7866
7866
7866
7866
7866
7866
7866
7866
7866
7866
7866
7866
7866
7866
7866
7866
7866
7866
7866
7866
7866
7866
7866
7866
7866
7866
7866
7866
7866
7866
7866
7866
7866
7866
7866
7866
7866
7866
7866
7866
7866
7866
7866
7866
7866
7866
7866
7866
7866
7866
7866
7866
7866
7866
7866
7866
7866
7866
7866
7866
7866
7866
7866
7866
7866
7866
7866
7866
7866
7866
7866
7866
7866
7866
7866
7866
7866
7866
7866
7866
7866
7866
7866
7866
7866
7866
7866
7866
7866
7866
7866
7866
7866
7866
7866
7866
7866
7866
7866
7866
7866
7866
7866
7866
7866
7866
7866
7866
7866
7866
7866
7866
7988
7988
7988
7988
7988
7988
7988
7988
7988
7988
7988
7988
7988
7988
7988
7988
7988
7988
7988
7988
7988
7988
7988
7988
7988
7988
7988
7988
7988
7988
7988
7988
7988
7988
7988
7988
7988
7988
7988
7988
7988
7988
7988
7988
7988
7988
7988
7988
7988
7988
7988
7988
7988
7988
7988
7988
7988
7988
7988
7988
7988
7988
7988
7988
7988
7988
7988
7988
7988
7988
7988
7988
7940
7940
7940
7940
7940
7940
7940
7940
7940
7940
7940
7940
7376
10009
8439
8439
8439
8439
8439
8439
8439
8439
8179
8179
8179
8179
8179
8179
8179
8179
8179
8179
8179
8179
8179
7990
7990
7990
7990
7990
7990
7990
7990
7990
7990
7990
7990
7990
7990
7990
7990
8123
8123
8123
8123
8123
8123
8123
8123
8123
8123
8123
8123
8123
8123
8123
8123
8123
8123
8123
8123
8123
8123
8123
8123
8123
8123
8123
8123
8123
8123
8123
8123
8123
8123
8369
8369
7841
7841
7841
7841
7841
7841
7841
7841
7841
7841
7841
7841
7841
7841
7841
7841
7841
7841
7841
7841
7841
7841
7841
7841
7841
7841
7841
7841
7841
7841
7841
7841
7841
7841
7841
7841
7841
7841
7841
7841
7841
7841
7841
7841
7841
7841
7841
7841
7841
7841
7841
7841
7841
7841
10009
7927
7927
7927
7927
7927
7927
7927
7927
7927
7927
7927
7927
7927
7927
7927
7927
7927
7927
7927
7927
7927
7927
7927
7927
7927
7927
7927
7940
7940
7940
7940
7940
7940
7940
7940
7940
7940
7940
7940
7940
7940
7940
7940
7940
7940
7940
7940
7940
7940
7940
7940
7940
7940
7940
8123
8123
8123
8123
8123
8123
8123
8123
8123
8123
8123
8123
8123
8123
8123
8123
8123
8123
8123
8123
8123
8123
8123
8123
8123
8123
8123
8123
8123
8123
8123
8123
8123
8123
8123
8123
8123
8123
8123
8123
8123
8123
8123
8123
8123
8123
8123
8123
8123
8123
8123
8123
8123
8140
8140
8140
8140
8140
8140
8140
8140
8140
8140
8140
8140
8140
8140
8140
8140
8140
8140
8140
8140
8140
8140
8140
8140
8398
8398
8398
8398
8398
8398
8398
8398
8398
8398
8398
8398
8398
8398
8398
8398
8398
8398
8582
8582
8582
8582
8582
8582
8200
8200
8200
8200
8200
8200
8200
8200
8200
8200
8200
8200
8200
8200
8200
8200
8200
8200
8200
8200
8200
8200
8200
8200
8200
8200
8200
8200
8200
8200
8200
8200
8200
8200
8200
8200
8200
8200
8200
8200
8200
8200
8200
8200
8200
8200
8200
8200
8200
8200
8200
8200
8200
8200
8200
8200
8200
8200
8200
8200
8200
8200
8218
8218
8218
8218
8218
8218
8218
8218
8218
8218
8218
8218
8218
8218
8218
8218
8218
8218
8218
8218
8218
8218
8218
8218
8218
8218
8218
8218
8218
8218
8218
8218
8218
8218
8218
8218
8218
8218
8218
8218
8218
8218
8218
8218
8218
8218
8218
8218
8218
8218
8218
8218
8218
8218
8218
8218
8218
8218
8218
8218
8218
8218
8218
8218
8218
8218
8218
8218
8478
8478
8478
8478
8478
8478
8190
8190
8190
8190
8190
8190
8190
8190
8190
8190
8190
8190
8190
8190
8190
8190
8190
8190
8190
8190
8190
8215
8215
8215
8215
8215
8215
8215
8215
8364
8364
8364
8364
8364
8364
8364
8364
8364
8364
8364
8364
8364
7969
7969
7969
7969
7746
7746
7746
7746
7746
7746
7746
7746
7746
7746
7746
7746
7746
7746
7746
7746
7746
7746
7746
7746
7746
7746
7746
7746
7746
7746
7746
7746
7746
7746
7464
7464
7464
7464
7464
7464
7464
7464
7464
7464
7464
7464
7464
7464
7464
7464
7464
7464
7464
7464
7464
7464
7464
7464
10009
8435
8435
8435
8435
8193
8193
8193
8193
8193
8193
8193
8193
8193
8193
8193
8193
8193
8193
8193
8461
8461
8461
8461
7975
10009
8516
10013
